
Gurobi 11.0.1 (win64) logging started Tue May 14 15:49:33 2024

Set parameter LogFile to value "output/solver_log0.txt"
Gurobi Optimizer version 11.0.1 build v11.0.1rc0 (win64 - Windows 11.0 (22631.2))

CPU model: 11th Gen Intel(R) Core(TM) i7-1165G7 @ 2.80GHz, instruction set [SSE2|AVX|AVX2|AVX512]
Thread count: 4 physical cores, 8 logical processors, using up to 8 threads

Optimize a model with 2569 rows, 649 columns and 49413 nonzeros
Model fingerprint: 0x5d545095
Variable types: 248 continuous, 401 integer (401 binary)
Coefficient statistics:
  Matrix range     [4e-01, 1e+05]
  Objective range  [1e+00, 1e+02]
  Bounds range     [1e+00, 1e+00]
  RHS range        [1e-02, 1e+05]

User MIP start produced solution with objective 39436 (0.01s)
User MIP start produced solution with objective 39436 (0.01s)
Loaded user MIP start with objective 39436

Presolve removed 159 rows and 160 columns
Presolve time: 0.06s
Presolved: 2410 rows, 489 columns, 48000 nonzeros
Variable types: 234 continuous, 255 integer (251 binary)

Root relaxation: objective 5.050353e+04, 759 iterations, 0.04 seconds (0.06 work units)

    Nodes    |    Current Node    |     Objective Bounds      |     Work
 Expl Unexpl |  Obj  Depth IntInf | Incumbent    BestBd   Gap | It/Node Time

     0     0 50503.5344    0   19 39435.9947 50503.5344  28.1%     -    0s
     0     0 49163.0489    0   43 39435.9947 49163.0489  24.7%     -    0s
     0     0 48297.5307    0   39 39435.9947 48297.5307  22.5%     -    0s
     0     0 48297.5307    0   40 39435.9947 48297.5307  22.5%     -    0s
     0     0 48295.3307    0   57 39435.9947 48295.3307  22.5%     -    0s
     0     0 48295.3307    0   58 39435.9947 48295.3307  22.5%     -    0s
     0     0 48295.3307    0   58 39435.9947 48295.3307  22.5%     -    0s
     0     0 47953.6183    0   45 39435.9947 47953.6183  21.6%     -    0s
     0     0 47910.4495    0   54 39435.9947 47910.4495  21.5%     -    1s
     0     0 47910.4495    0   43 39435.9947 47910.4495  21.5%     -    1s
     0     0 47909.5872    0   40 39435.9947 47909.5872  21.5%     -    1s
     0     0 47909.5872    0   36 39435.9947 47909.5872  21.5%     -    1s
     0     2 47909.5872    0   36 39435.9947 47909.5872  21.5%     -    1s
H  267   241                    39471.325008 46887.6908  18.8%   178    3s
*  653   237             192    39543.056582 43677.1648  10.5%   121    4s
   827   383 39579.0625   32   18 39543.0566 41300.4612  4.44%   128    5s
H 3460  1219                    39567.318576 39579.0729  0.03%  58.3    9s
H 3876  1107                    39573.804887 39579.0729  0.01%  52.1    9s
  3877  1263     cutoff   90      39573.8049 39579.0729  0.01%  52.2   10s
  4459  1360 39577.9314   57   27 39573.8049 39579.0729  0.01%  61.2   15s
* 4653  1341              62    39573.916865 39579.0729  0.01%  60.8   15s
* 4930  1435              60    39575.353012 39579.0728  0.01%  60.6   16s

Cutting planes:
  Gomory: 1
  MIR: 19

Explored 5142 nodes (313944 simplex iterations) in 16.19 seconds (38.82 work units)
Thread count was 8 (of 8 available processors)

Solution count 8: 39575.4 39575.4 39573.9 ... 39436

Optimal solution found (tolerance 1.00e-04)
Best objective 3.957535301223e+04, best bound 3.957907284661e+04, gap 0.0094%
